1000 100
75 135
247 493
94 460
392 121
56 331
478 224
116 311
113 123
76 305
139 445
5 348
358 71
10 52
219 198
314 244
108 308
457 467
157 1
256 36
345 313
167 339
451 270
420 419
102 232
81 329
370 136
366 434
365 445
168 409
401 306
420 497
423 492
280 103
14 408
360 97
86 284
332 160
120 185
228 87
162 351
185 166
145 191
22 276
413 145
443 462
401 478
50 379
14 88
433 254
265 16
466 439
376 487
82 248
76 159
196 140
333 306
269 457
301 269
490 490
304 210
474 146
89 6
274 240
486 346
488 51
307 20
164 320
98 315
311 423
388 147
272 398
280 469
414 423
216 118
66 141
281 236
97 370
410 45
387 349
357 486
76 177
257 499
115 443
159 6
176 474
122 471
449 186
495 240
260 52
363 412
445 292
150 345
342 144
475 295
44 366
283 229
400 230
102 495
91 148
419 183
